NAME : amz2410.202889_75389.tour
COMMENT : Cost = 202889_75389
COMMENT : Found by LKH-AMZ [Keld Helsgaun] Sun May 11 15:13:33 2025
COMMENT : TW viol.: 0 #: 0
TYPE : TOUR
DIMENSION : 100
TOUR_SECTION
29
5
58
13
38
80
3
56
7
42
94
40
23
54
41
22
82
35
95
60
48
19
57
18
26
49
36
33
73
71
37
98
92
72
78
87
59
69
84
74
34
4
8
97
96
44
6
93
85
64
90
55
43
12
21
16
47
51
68
2
10
70
66
11
86
88
91
76
52
15
46
9
53
17
77
100
65
25
63
83
45
14
99
20
61
79
30
50
67
39
27
32
1
62
31
28
81
89
24
75
-1
EOF
